119	22	4	51	
10	13	14	13

0	0	0	0	0	0	4	1	2	3	4
1	0	0	10	1	10	2	5	19
2	0	1	5	9	3	1	11
3	10	0	10	0	3	1	8
4	0	10	0	7	3	1	6
5	0	0	4	0	3	1	18
6	0	7	0	0	10	1	7
7	8	0	5	0	4	1	10
8	3	6	0	7	10	1	9
9	0	4	0	0	6	1	15
10	0	0	0	10	4	1	13
11	6	0	4	5	6	1	12
12	2	10	9	10	9	1	19
13	8	0	0	0	8	1	14
14	0	0	2	5	3	1	16
15	0	7	0	0	6	1	17
16	0	0	5	3	3	1	20
17	0	3	7	9	6	1	21
18	2	0	7	0	9	1	21
19	0	0	0	9	8	1	21
20	0	10	3	10	5	1	21
21	0	0	0	0	0	0
